78
Time limit set to 60 seconds
Running CP solver
/home/omastto1/General-Optimization-Solver/src/solvers/mmrcpsp.py:42(stream:108:6): Warning: Cumulative expression 'pulse': height is zero, expression is zero everywhere.
                                                                                               VarCumulAtom_149 = pulse(task_0_mode_0, 0)
/home/omastto1/General-Optimization-Solver/src/solvers/mmrcpsp.py:42(stream:108:1257): Warning: Cumulative expression 'pulse': height is zero, expression is zero everywhere.
                                                                                                  VarCumulAtom_198 = pulse(task_17_mode_0, 0)
/home/omastto1/General-Optimization-Solver/src/solvers/mmrcpsp.py:42(stream:109:6): Warning: Cumulative expression 'pulse': height is zero, expression is zero everywhere.
                                                                                               VarCumulAtom_202 = pulse(task_0_mode_0, 0)
/home/omastto1/General-Optimization-Solver/src/solvers/mmrcpsp.py:42(stream:109:1252): Warning: Cumulative expression 'pulse': height is zero, expression is zero everywhere.
                                                                                                  VarCumulAtom_251 = pulse(task_17_mode_0, 0)
 ! --------------------------------------------------- CP Optimizer 20.1.0.0 --
 ! Minimization problem - 69 variables, 51 constraints
 ! TimeLimit            = 60
 ! Workers              = 14
 ! LogVerbosity         = Terse
 ! Initial process time : 0.01s (0.01s extraction + 0.00s propagation)
 !  . Log search space  : 161.6 (before), 161.6 (after)
 !  . Memory usage      : 754.6 kB (before), 754.6 kB (after)
 ! Using parallel search with 14 workers.
 ! ----------------------------------------------------------------------------
 !          Best Branches  Non-fixed    W       Branch decision
                        0         69                 -
 + New bound is 24
 ! Using iterative diving.
 ! Using temporal relaxation.
 *            44       45  0.41s        1      (gap is 45.45%)
 *            38      110  0.41s        1      (gap is 36.84%)
 *            36      150  0.41s        1      (gap is 33.33%)
 *            35      224  0.41s        1      (gap is 31.43%)
 *            34      350  0.41s        1      (gap is 29.41%)
 *            33      364  0.41s        1      (gap is 27.27%)
 *            31      397  0.41s        1      (gap is 22.58%)
 *            29      427  0.41s        1      (gap is 17.24%)
 *            28      465  0.41s        1      (gap is 14.29%)
 *            24      582  0.41s        1      (gap is 0.00%)
 ! ----------------------------------------------------------------------------
 ! Search completed, 10 solutions found.
 ! Best objective         : 24 (optimal - effective tol. is 0)
 ! Best bound             : 24
 ! ----------------------------------------------------------------------------
 ! Number of branches     : 66575
 ! Number of fails        : 2566
 ! Total memory usage     : 9.7 MB (9.6 MB CP Optimizer + 0.1 MB Concert)
 ! Time spent in solve    : 0.43s (0.42s engine + 0.01s extraction)
 ! Search speed (br. / s) : 158511.9
 ! ----------------------------------------------------------------------------
task_0: (start=0, end=0, size=0, length=0)
Task 0 is scheduled in mode 0 from 0 to 0
task_1: (start=0, end=5, size=5, length=5)
Task 1 is scheduled in mode 1 from 0 to 5
task_2: (start=0, end=5, size=5, length=5)
Task 2 is scheduled in mode 1 from 0 to 5
task_3: (start=0, end=2, size=2, length=2)
Task 3 is scheduled in mode 0 from 0 to 2
task_4: (start=2, end=10, size=8, length=8)
Task 4 is scheduled in mode 2 from 2 to 10
task_5: (start=10, end=12, size=2, length=2)
Task 5 is scheduled in mode 0 from 10 to 12
task_6: (start=5, end=10, size=5, length=5)
Task 6 is scheduled in mode 1 from 5 to 10
task_7: (start=10, end=12, size=2, length=2)
Task 7 is scheduled in mode 0 from 10 to 12
task_8: (start=5, end=12, size=7, length=7)
Task 8 is scheduled in mode 2 from 5 to 12
task_9: (start=5, end=11, size=6, length=6)
Task 9 is scheduled in mode 2 from 5 to 11
task_10: (start=12, end=13, size=1, length=1)
Task 10 is scheduled in mode 0 from 12 to 13
task_11: (start=13, end=14, size=1, length=1)
Task 11 is scheduled in mode 0 from 13 to 14
task_12: (start=11, end=14, size=3, length=3)
Task 12 is scheduled in mode 0 from 11 to 14
task_13: (start=14, end=17, size=3, length=3)
Task 13 is scheduled in mode 0 from 14 to 17
task_14: (start=14, end=23, size=9, length=9)
Task 14 is scheduled in mode 2 from 14 to 23
task_15: (start=12, end=17, size=5, length=5)
Task 15 is scheduled in mode 2 from 12 to 17
task_16: (start=17, end=24, size=7, length=7)
Task 16 is scheduled in mode 0 from 17 to 24
task_17: (start=24, end=24, size=0, length=0)
Task 17 is scheduled in mode 0 from 24 to 24
Optimal solution found
Objective value: 24
Solution is optimal.
